set Plants := Nagpur Delhi Raipur;

set Warehouses := Lucknow Srinagar Gaya Patna;

param supply := Nagpur 		325
                Delhi 		1040
		Raipur 		988;

param demand := Lucknow 	390
		Srinagar 	416
		Gaya 		1040
		Patna 		507;

param costs : Lucknow Srinagar Gaya Patna:=
Nagpur 	      13      26       13   39     	
Delhi         39      65       13   52
Raipur 	      26      26       26   26;

